(set-info :smt-lib-version 2.6)
(set-logic UF)
(set-info :source |
Generated by: Andrew Reynolds
Generated on: 2017-04-28
Generator: Sledgehammer, converted to v2.6 by CVC4
Application: Verfication goals in Isabelle
Target solver: CVC4, Z3
Publications: "A Decision Procedure for (Co)Datatypes" by Andrew Reynolds and Jasmin Blanchette, CADE 2015.
|)
(set-info :license "https://creativecommons.org/licenses/by/4.0/")
(set-info :category "industrial")
(set-info :status unknown)


(declare-sort Nat$ 0)
(declare-sort Nat_nat_fun$ 0)
(declare-sort Nat_num_fun$ 0)
(declare-sort Num_num_fun$ 0)
(declare-sort Nat_bool_fun$ 0)
(declare-sort Num$ 0)
(declare-fun one$ () Num$)
(declare-fun select$ (Num$) Num$)
(declare-fun bit0$ (Num$) Num$)
(declare-fun selecta$ (Num$) Num$)
(declare-fun bit1$ (Num$) Num$)
(declare-fun suc$ (Nat$) Nat$)
(declare-fun one$a () Nat$)
(declare-fun plus$ (Nat$) Nat_nat_fun$)
(declare-fun size$ (Num$) Nat$)
(declare-fun zero$ () Nat$)
(declare-fun plus$a (Num$ Num$) Num$)
(declare-fun prime$ (Nat$) Bool)
(declare-fun times$ (Nat$) Nat_nat_fun$)
(declare-fun smooth$ (Nat$) Bool)
(declare-fun times$a (Num$) Num_num_fun$)
(declare-fun fun_app$ (Nat_nat_fun$ Nat$) Nat$)
(declare-fun less_eq$ (Nat$) Nat_bool_fun$)
(declare-fun numeral$ (Num$) Nat$)
(declare-fun fun_app$a (Num_num_fun$ Num$) Num$)
(declare-fun fun_app$b (Nat_bool_fun$ Nat$) Bool)
(declare-fun fun_app$c (Nat_num_fun$ Nat$) Num$)
(declare-fun less_eq$a (Num$ Num$) Bool)
(declare-fun size_num$ (Num$) Nat$)
(assert (not (smooth$ (numeral$ (bit0$ one$)))))
(assert (forall ((?v0 Num$)) (= (= (bit0$ ?v0) one$) false) ))
(assert (forall ((?v0 Num$)) (= (= one$ (bit0$ ?v0)) false) ))
(assert (forall ((?v0 Num$) (?v1 Num$)) (= (= (bit0$ ?v0) (bit0$ ?v1)) (= ?v0 ?v1)) ))
(assert (forall ((?v0 Num$) (?v1 Num$)) (= (= (bit0$ ?v0) (bit0$ ?v1)) (= ?v0 ?v1)) ))
(assert (forall ((?v0 Num$) (?v1 Num$)) (= (= (numeral$ ?v0) (numeral$ ?v1)) (= ?v0 ?v1)) ))
(assert (forall ((?v0 Num$)) (not (= one$ (bit0$ ?v0))) ))
(assert (= (= one$ one$) true))
(assert (prime$ (numeral$ (bit0$ one$))))
(assert (not (= zero$ (numeral$ (bit0$ one$)))))
(assert (forall ((?v0 Nat$) (?v1 Nat$)) (= (smooth$ (fun_app$ (times$ ?v0) ?v1)) (and (smooth$ ?v0) (smooth$ ?v1))) ))
(assert (forall ((?v0 Num$) (?v1 Num$) (?v2 Nat$)) (= (fun_app$ (times$ (numeral$ ?v0)) (fun_app$ (times$ (numeral$ ?v1)) ?v2)) (fun_app$ (times$ (numeral$ (fun_app$a (times$a ?v0) ?v1))) ?v2)) ))
(assert (forall ((?v0 Num$) (?v1 Num$)) (= (fun_app$ (times$ (numeral$ ?v0)) (numeral$ ?v1)) (numeral$ (fun_app$a (times$a ?v0) ?v1))) ))
(assert (forall ((?v0 Nat$) (?v1 Nat$) (?v2 Nat$)) (= (= (fun_app$ (times$ ?v0) ?v1) (fun_app$ (times$ ?v0) ?v2)) (or (= ?v0 zero$) (= ?v1 ?v2))) ))
(assert (not (prime$ zero$)))
(assert (forall ((?v0 Num$)) (not (= zero$ (numeral$ ?v0))) ))
(assert (forall ((?v0 Nat$)) (= (fun_app$ (times$ ?v0) (numeral$ one$)) ?v0) ))
(assert (forall ((?v0 Nat$)) (= (fun_app$ (times$ (numeral$ one$)) ?v0) ?v0) ))
(assert (not (smooth$ zero$)))
(assert (forall ((?v0 Nat$) (?v1 Nat$) (?v2 Nat$)) (= (= (fun_app$ (times$ ?v0) ?v1) (fun_app$ (times$ ?v2) ?v1)) (or (= ?v1 zero$) (= ?v0 ?v2))) ))
(assert (forall ((?v0 Nat$) (?v1 Nat$) (?v2 Nat$)) (= (= (fun_app$ (times$ ?v0) ?v1) (fun_app$ (times$ ?v0) ?v2)) (or (= ?v0 zero$) (= ?v1 ?v2))) ))
(assert (forall ((?v0 Nat$) (?v1 Nat$)) (= (= (fun_app$ (times$ ?v0) ?v1) zero$) (or (= ?v0 zero$) (= ?v1 zero$))) ))
(assert (forall ((?v0 Nat$)) (= (fun_app$ (times$ ?v0) zero$) zero$) ))
(assert (forall ((?v0 Nat$)) (= (fun_app$ (times$ zero$) ?v0) zero$) ))
(assert (forall ((?v0 Nat$) (?v1 Nat$) (?v2 Nat$)) (= (= (fun_app$ (times$ ?v0) ?v1) (fun_app$ (times$ ?v2) ?v1)) (or (= ?v0 ?v2) (= ?v1 zero$))) ))
(assert (forall ((?v0 Nat$) (?v1 Nat$) (?v2 Nat$)) (= (= (fun_app$ (times$ ?v0) ?v1) (fun_app$ (times$ ?v0) ?v2)) (or (= ?v1 ?v2) (= ?v0 zero$))) ))
(assert (forall ((?v0 Nat$) (?v1 Nat$)) (= (= (fun_app$ (times$ ?v0) ?v1) zero$) (or (= ?v0 zero$) (= ?v1 zero$))) ))
(assert (forall ((?v0 Nat$)) (! (= (fun_app$ (times$ ?v0) zero$) zero$) :pattern ((times$ ?v0)))))
(assert (forall ((?v0 Nat$) (?v1 Nat$)) (=> (= (fun_app$ (times$ ?v0) ?v1) zero$) (or (= ?v0 zero$) (= ?v1 zero$))) ))
(assert (forall ((?v0 Num$) (?v1 Num$)) (! (= (fun_app$a (times$a (bit0$ ?v0)) (bit0$ ?v1)) (bit0$ (bit0$ (fun_app$a (times$a ?v0) ?v1)))) :pattern ((fun_app$a (times$a (bit0$ ?v0)) (bit0$ ?v1))))))
(assert (forall ((?v0 Num$)) (! (= (fun_app$a (times$a ?v0) one$) ?v0) :pattern ((times$a ?v0)))))
(assert (forall ((?v0 Num$)) (! (= (fun_app$a (times$a one$) ?v0) ?v0) :pattern ((fun_app$a (times$a one$) ?v0)))))
(assert (forall ((?v0 Nat$)) (=> (and (=> (= ?v0 zero$) false) (=> (not (= ?v0 zero$)) false)) false) ))
(assert (forall ((?v0 Nat$)) (= (= zero$ ?v0) (= ?v0 zero$)) ))
(assert (forall ((?v0 Nat$) (?v1 Nat$)) (= (fun_app$ (times$ ?v0) ?v1) (fun_app$ (times$ ?v1) ?v0)) ))
(assert (forall ((?v0 Nat$) (?v1 Nat$) (?v2 Nat$)) (= (fun_app$ (times$ ?v0) (fun_app$ (times$ ?v1) ?v2)) (fun_app$ (times$ ?v1) (fun_app$ (times$ ?v0) ?v2))) ))
(assert (forall ((?v0 Nat$) (?v1 Nat$) (?v2 Nat$)) (= (fun_app$ (times$ (fun_app$ (times$ ?v0) ?v1)) ?v2) (fun_app$ (times$ ?v0) (fun_app$ (times$ ?v1) ?v2))) ))
(assert (forall ((?v0 Nat$) (?v1 Nat$) (?v2 Nat$)) (= (fun_app$ (times$ (fun_app$ (times$ ?v0) ?v1)) ?v2) (fun_app$ (times$ ?v0) (fun_app$ (times$ ?v1) ?v2))) ))
(assert (forall ((?v0 Nat$)) (! (= (fun_app$ (times$ zero$) ?v0) zero$) :pattern ((fun_app$ (times$ zero$) ?v0)))))
(assert (forall ((?v0 Nat$) (?v1 Nat$) (?v2 Nat$)) (=> (not (= ?v0 zero$)) (= (= (fun_app$ (times$ ?v0) ?v1) (fun_app$ (times$ ?v0) ?v2)) (= ?v1 ?v2))) ))
(assert (forall ((?v0 Nat$) (?v1 Nat$) (?v2 Nat$)) (=> (not (= ?v0 zero$)) (= (= (fun_app$ (times$ ?v1) ?v0) (fun_app$ (times$ ?v2) ?v0)) (= ?v1 ?v2))) ))
(assert (forall ((?v0 Nat$) (?v1 Nat$)) (=> (and (not (= ?v0 zero$)) (not (= ?v1 zero$))) (not (= (fun_app$ (times$ ?v0) ?v1) zero$))) ))
(assert (forall ((?v0 Nat$) (?v1 Nat$)) (=> (not (= (fun_app$ (times$ ?v0) ?v1) zero$)) (and (not (= ?v0 zero$)) (not (= ?v1 zero$)))) ))
(assert (= (size$ one$) zero$))
(assert (= (size_num$ one$) zero$))
(assert (forall ((?v0 Nat_bool_fun$) (?v1 Nat$)) (=> (and (fun_app$b ?v0 zero$) (and (forall ((?v2 Nat$)) (=> (fun_app$b ?v0 ?v2) (fun_app$b ?v0 (fun_app$ (times$ (numeral$ (bit0$ one$))) ?v2))) ) (forall ((?v2 Nat$)) (=> (fun_app$b ?v0 ?v2) (fun_app$b ?v0 (suc$ (fun_app$ (times$ (numeral$ (bit0$ one$))) ?v2)))) ))) (fun_app$b ?v0 ?v1)) ))
(assert (forall ((?v0 Nat$)) (=> (prime$ ?v0) (fun_app$b (less_eq$ (numeral$ (bit0$ one$))) ?v0)) ))
(assert (= (numeral$ (bit0$ one$)) (suc$ (suc$ zero$))))
(assert (forall ((?v0 Nat$)) (= (fun_app$ (times$ (numeral$ (bit0$ one$))) ?v0) (fun_app$ (plus$ ?v0) ?v0)) ))
(assert (forall ((?v0 Nat$)) (= (fun_app$ (times$ ?v0) (numeral$ (bit0$ one$))) (fun_app$ (plus$ ?v0) ?v0)) ))
(assert (forall ((?v0 Nat$) (?v1 Nat$) (?v2 Nat$)) (= (= (fun_app$ (plus$ ?v0) ?v1) (fun_app$ (plus$ ?v0) ?v2)) (= ?v1 ?v2)) ))
(assert (forall ((?v0 Nat$) (?v1 Nat$) (?v2 Nat$)) (= (= (fun_app$ (plus$ ?v0) ?v1) (fun_app$ (plus$ ?v2) ?v1)) (= ?v0 ?v2)) ))
(assert (forall ((?v0 Num$) (?v1 Num$)) (! (= (plus$a (bit0$ ?v0) (bit0$ ?v1)) (bit0$ (plus$a ?v0 ?v1))) :pattern ((plus$a (bit0$ ?v0) (bit0$ ?v1))))))
(assert (forall ((?v0 Nat$)) (! (= (fun_app$ (plus$ ?v0) zero$) ?v0) :pattern ((plus$ ?v0)))))
(assert (forall ((?v0 Nat$) (?v1 Nat$)) (= (= (fun_app$ (plus$ ?v0) ?v1) zero$) (and (= ?v0 zero$) (= ?v1 zero$))) ))
(assert (forall ((?v0 Nat$) (?v1 Nat$)) (! (= (fun_app$ (plus$ ?v0) (suc$ ?v1)) (suc$ (fun_app$ (plus$ ?v0) ?v1))) :pattern ((fun_app$ (plus$ ?v0) (suc$ ?v1))))))
(assert (forall ((?v0 Nat$) (?v1 Nat$)) (= (= (suc$ ?v0) (suc$ ?v1)) (= ?v0 ?v1)) ))
(assert (forall ((?v0 Nat$) (?v1 Nat$)) (= (= (suc$ ?v0) (suc$ ?v1)) (= ?v0 ?v1)) ))
(assert (forall ((?v0 Nat$) (?v1 Nat$) (?v2 Nat$)) (= (fun_app$b (less_eq$ (fun_app$ (plus$ ?v0) ?v1)) (fun_app$ (plus$ ?v0) ?v2)) (fun_app$b (less_eq$ ?v1) ?v2)) ))
(assert (forall ((?v0 Nat$) (?v1 Nat$)) (= (= one$a (fun_app$ (times$ ?v0) ?v1)) (and (= ?v0 one$a) (= ?v1 one$a))) ))
(assert (forall ((?v0 Nat$) (?v1 Nat$)) (= (= (fun_app$ (times$ ?v0) ?v1) one$a) (and (= ?v0 one$a) (= ?v1 one$a))) ))
(assert (forall ((?v0 Nat$) (?v1 Nat$) (?v2 Nat$)) (= (fun_app$b (less_eq$ (fun_app$ (plus$ ?v0) ?v1)) (fun_app$ (plus$ ?v0) ?v2)) (fun_app$b (less_eq$ ?v1) ?v2)) ))
(assert (forall ((?v0 Nat$) (?v1 Nat$) (?v2 Nat$)) (= (fun_app$b (less_eq$ (fun_app$ (plus$ ?v0) ?v1)) (fun_app$ (plus$ ?v2) ?v1)) (fun_app$b (less_eq$ ?v0) ?v2)) ))
(assert (forall ((?v0 Num$) (?v1 Num$)) (= (fun_app$b (less_eq$ (numeral$ ?v0)) (numeral$ ?v1)) (less_eq$a ?v0 ?v1)) ))
(assert (forall ((?v0 Nat$)) (= (fun_app$ (plus$ ?v0) zero$) ?v0) ))
(assert (forall ((?v0 Nat$)) (= (fun_app$ (plus$ zero$) ?v0) ?v0) ))
(assert (forall ((?v0 Nat$)) (= (fun_app$ (times$ ?v0) one$a) ?v0) ))
(assert (forall ((?v0 Nat$)) (= (fun_app$ (times$ one$a) ?v0) ?v0) ))
(assert (forall ((?v0 Num$) (?v1 Num$)) (= (fun_app$ (plus$ (numeral$ ?v0)) (numeral$ ?v1)) (numeral$ (plus$a ?v0 ?v1))) ))
(assert (forall ((?v0 Num$) (?v1 Num$) (?v2 Nat$)) (= (fun_app$ (plus$ (numeral$ ?v0)) (fun_app$ (plus$ (numeral$ ?v1)) ?v2)) (fun_app$ (plus$ (numeral$ (plus$a ?v0 ?v1))) ?v2)) ))
(assert (= (plus$a one$ one$) (bit0$ one$)))
(assert (forall ((?v0 Nat$)) (fun_app$b (less_eq$ zero$) ?v0) ))
(assert (forall ((?v0 Nat$)) (! (= (fun_app$b (less_eq$ ?v0) zero$) (= ?v0 zero$)) :pattern ((less_eq$ ?v0)))))
(assert (forall ((?v0 Nat$) (?v1 Nat$)) (! (= (fun_app$b (less_eq$ (suc$ ?v0)) (suc$ ?v1)) (fun_app$b (less_eq$ ?v0) ?v1)) :pattern ((fun_app$b (less_eq$ (suc$ ?v0)) (suc$ ?v1))))))
(assert (forall ((?v0 Nat$) (?v1 Nat$)) (! (= (fun_app$ (times$ ?v0) (suc$ ?v1)) (fun_app$ (plus$ ?v0) (fun_app$ (times$ ?v0) ?v1))) :pattern ((fun_app$ (times$ ?v0) (suc$ ?v1))))))
(assert (forall ((?v0 Num$)) (= (= one$a (numeral$ ?v0)) (= one$ ?v0)) ))
(assert (forall ((?v0 Num$)) (= (= (numeral$ ?v0) one$a) (= ?v0 one$)) ))
(assert (forall ((?v0 Num$)) (= (suc$ (numeral$ ?v0)) (numeral$ (plus$a ?v0 one$))) ))
(assert (forall ((?v0 Nat$) (?v1 Nat$)) (= (= (fun_app$ (times$ ?v0) ?v1) (suc$ zero$)) (and (= ?v0 (suc$ zero$)) (= ?v1 (suc$ zero$)))) ))
(assert (forall ((?v0 Nat$) (?v1 Nat$)) (= (= (suc$ zero$) (fun_app$ (times$ ?v0) ?v1)) (and (= ?v0 (suc$ zero$)) (= ?v1 (suc$ zero$)))) ))
(assert (forall ((?v0 Num$)) (= (fun_app$b (less_eq$ (numeral$ ?v0)) one$a) (less_eq$a ?v0 one$)) ))
(assert (forall ((?v0 Num$)) (= (fun_app$ (plus$ one$a) (numeral$ ?v0)) (numeral$ (plus$a one$ ?v0))) ))
(assert (forall ((?v0 Num$)) (= (fun_app$ (plus$ (numeral$ ?v0)) one$a) (numeral$ (plus$a ?v0 one$))) ))
(assert (forall ((?v0 Nat$)) (= (fun_app$ (plus$ ?v0) (numeral$ (bit0$ one$))) (suc$ (suc$ ?v0))) ))
(assert (forall ((?v0 Nat$)) (= (fun_app$ (plus$ (numeral$ (bit0$ one$))) ?v0) (suc$ (suc$ ?v0))) ))
(assert (= (suc$ one$a) (numeral$ (bit0$ one$))))
(assert (forall ((?v0 Nat$) (?v1 Nat$)) (= (fun_app$b (less_eq$ (suc$ zero$)) (fun_app$ (times$ ?v0) ?v1)) (and (fun_app$b (less_eq$ (suc$ zero$)) ?v0) (fun_app$b (less_eq$ (suc$ zero$)) ?v1))) ))
(assert (forall ((?v0 Num$)) (! (= (size$ (bit0$ ?v0)) (fun_app$ (plus$ (size$ ?v0)) (suc$ zero$))) :pattern ((bit0$ ?v0)))))
(assert (= (fun_app$ (plus$ one$a) one$a) (numeral$ (bit0$ one$))))
(assert (forall ((?v0 Nat$) (?v1 Nat$)) (= (= (fun_app$ (plus$ ?v0) ?v1) (suc$ zero$)) (or (and (= ?v0 (suc$ zero$)) (= ?v1 zero$)) (and (= ?v0 zero$) (= ?v1 (suc$ zero$))))) ))
(assert (forall ((?v0 Nat$) (?v1 Nat$)) (= (= (suc$ zero$) (fun_app$ (plus$ ?v0) ?v1)) (or (and (= ?v0 (suc$ zero$)) (= ?v1 zero$)) (and (= ?v0 zero$) (= ?v1 (suc$ zero$))))) ))
(assert (forall ((?v0 Nat$) (?v1 Nat$)) (! (= (fun_app$ (times$ (suc$ ?v0)) ?v1) (fun_app$ (plus$ ?v1) (fun_app$ (times$ ?v0) ?v1))) :pattern ((fun_app$ (times$ (suc$ ?v0)) ?v1)))))
(assert (forall ((?v0 Nat$) (?v1 Nat$) (?v2 Nat$)) (= (fun_app$b (less_eq$ (fun_app$ (times$ (suc$ ?v0)) ?v1)) (fun_app$ (times$ (suc$ ?v0)) ?v2)) (fun_app$b (less_eq$ ?v1) ?v2)) ))
(assert (= one$a (suc$ zero$)))
(assert (forall ((?v0 Nat$) (?v1 Nat$)) (=> (and (fun_app$b (less_eq$ ?v0) zero$) (fun_app$b (less_eq$ ?v1) zero$)) (fun_app$b (less_eq$ (fun_app$ (plus$ ?v0) ?v1)) zero$)) ))
(assert (forall ((?v0 Nat$) (?v1 Nat$) (?v2 Nat$)) (=> (and (fun_app$b (less_eq$ zero$) ?v0) (fun_app$b (less_eq$ ?v1) ?v2)) (fun_app$b (less_eq$ ?v1) (fun_app$ (plus$ ?v2) ?v0))) ))
(assert (forall ((?v0 Nat$) (?v1 Nat$) (?v2 Nat$)) (=> (and (fun_app$b (less_eq$ zero$) ?v0) (fun_app$b (less_eq$ ?v1) ?v2)) (fun_app$b (less_eq$ ?v1) (fun_app$ (plus$ ?v0) ?v2))) ))
(assert (forall ((?v0 Nat$) (?v1 Nat$)) (=> (and (fun_app$b (less_eq$ zero$) ?v0) (fun_app$b (less_eq$ zero$) ?v1)) (= (= (fun_app$ (plus$ ?v0) ?v1) zero$) (and (= ?v0 zero$) (= ?v1 zero$)))) ))
(assert (forall ((?v0 Nat$) (?v1 Nat$)) (=> (and (fun_app$b (less_eq$ zero$) ?v0) (fun_app$b (less_eq$ zero$) ?v1)) (fun_app$b (less_eq$ zero$) (fun_app$ (plus$ ?v0) ?v1))) ))
(assert (fun_app$b (less_eq$ zero$) one$a))
(assert (not (fun_app$b (less_eq$ one$a) zero$)))
(assert (forall ((?v0 Nat$)) (not (fun_app$b (less_eq$ (suc$ ?v0)) ?v0)) ))
(assert (forall ((?v0 Nat$)) (fun_app$b (less_eq$ ?v0) ?v0) ))
(assert (forall ((?v0 Nat$) (?v1 Nat$)) (fun_app$b (less_eq$ ?v0) (fun_app$ (plus$ ?v0) ?v1)) ))
(assert (forall ((?v0 Nat$) (?v1 Nat$)) (fun_app$b (less_eq$ ?v0) (fun_app$ (plus$ ?v1) ?v0)) ))
(assert (forall ((?v0 Nat$) (?v1 Nat$)) (or (fun_app$b (less_eq$ ?v0) ?v1) (fun_app$b (less_eq$ ?v1) ?v0)) ))
(assert (forall ((?v0 Nat$)) (not (= ?v0 (suc$ ?v0))) ))
(assert (forall ((?v0 Nat$) (?v1 Nat$)) (=> (fun_app$b (less_eq$ ?v0) ?v1) (exists ((?v2 Nat$)) (= ?v1 (fun_app$ (plus$ ?v0) ?v2)) )) ))
(assert (forall ((?v0 Nat$) (?v1 Nat$)) (=> (fun_app$b (less_eq$ ?v0) ?v1) (fun_app$b (less_eq$ ?v0) (suc$ ?v1))) ))
(assert (forall ((?v0 Nat$) (?v1 Nat$) (?v2 Nat$)) (=> (fun_app$b (less_eq$ ?v0) ?v1) (fun_app$b (less_eq$ ?v0) (fun_app$ (plus$ ?v1) ?v2))) ))
(assert (forall ((?v0 Nat$) (?v1 Nat$) (?v2 Nat$)) (=> (fun_app$b (less_eq$ ?v0) ?v1) (fun_app$b (less_eq$ ?v0) (fun_app$ (plus$ ?v2) ?v1))) ))
(assert (forall ((?v0 Nat$) (?v1 Nat$) (?v2 Nat$)) (=> (fun_app$b (less_eq$ ?v0) ?v1) (fun_app$b (less_eq$ (fun_app$ (plus$ ?v0) ?v2)) (fun_app$ (plus$ ?v1) ?v2))) ))
(assert (forall ((?v0 Nat$) (?v1 Nat$) (?v2 Nat$)) (=> (fun_app$b (less_eq$ ?v0) ?v1) (fun_app$b (less_eq$ (fun_app$ (plus$ ?v2) ?v0)) (fun_app$ (plus$ ?v2) ?v1))) ))
(assert (forall ((?v0 Nat$) (?v1 Nat$) (?v2 Nat$)) (=> (fun_app$b (less_eq$ ?v0) ?v1) (fun_app$b (less_eq$ (fun_app$ (plus$ ?v0) ?v2)) (fun_app$ (plus$ ?v1) ?v2))) ))
(assert (forall ((?v0 Nat$) (?v1 Nat$) (?v2 Nat$)) (=> (and (fun_app$b (less_eq$ ?v0) ?v1) (fun_app$b (less_eq$ ?v1) ?v2)) (fun_app$b (less_eq$ ?v0) ?v2)) ))
(assert (forall ((?v0 Nat$) (?v1 Nat$) (?v2 Nat$) (?v3 Nat$)) (=> (and (fun_app$b (less_eq$ ?v0) ?v1) (fun_app$b (less_eq$ ?v2) ?v3)) (fun_app$b (less_eq$ (fun_app$ (plus$ ?v0) ?v2)) (fun_app$ (plus$ ?v1) ?v3))) ))
(assert (forall ((?v0 Nat$) (?v1 Nat$) (?v2 Nat$) (?v3 Nat$)) (=> (and (fun_app$b (less_eq$ ?v0) ?v1) (fun_app$b (less_eq$ ?v2) ?v3)) (fun_app$b (less_eq$ (fun_app$ (plus$ ?v0) ?v2)) (fun_app$ (plus$ ?v1) ?v3))) ))
(assert (forall ((?v0 Nat$) (?v1 Nat$)) (=> (and (fun_app$b (less_eq$ ?v0) ?v1) (fun_app$b (less_eq$ ?v1) ?v0)) (= ?v0 ?v1)) ))
(assert (forall ((?v0 Nat$) (?v1 Nat$)) (=> (and (fun_app$b (less_eq$ ?v0) (suc$ ?v1)) (and (=> (fun_app$b (less_eq$ ?v0) ?v1) false) (=> (= ?v0 (suc$ ?v1)) false))) false) ))
(assert (forall ((?v0 Nat$) (?v1 Nat$)) (=> (fun_app$b (less_eq$ (suc$ ?v0)) ?v1) (exists ((?v2 Nat$)) (= ?v1 (suc$ ?v2)) )) ))
(assert (forall ((?v0 Nat$) (?v1 Nat$)) (=> (fun_app$b (less_eq$ (suc$ ?v0)) ?v1) (fun_app$b (less_eq$ ?v0) ?v1)) ))
(assert (forall ((?v0 Nat$) (?v1 Nat$) (?v2 Nat$)) (=> (fun_app$b (less_eq$ (fun_app$ (plus$ ?v0) ?v1)) ?v2) (fun_app$b (less_eq$ ?v0) ?v2)) ))
(assert (forall ((?v0 Nat$) (?v1 Nat$) (?v2 Nat$)) (=> (fun_app$b (less_eq$ (fun_app$ (plus$ ?v0) ?v1)) ?v2) (fun_app$b (less_eq$ ?v1) ?v2)) ))
(assert (forall ((?v0 Nat$) (?v1 Nat$) (?v2 Nat$)) (=> (and (fun_app$b (less_eq$ (fun_app$ (plus$ ?v0) ?v1)) ?v2) (=> (and (fun_app$b (less_eq$ ?v0) ?v2) (fun_app$b (less_eq$ ?v1) ?v2)) false)) false) ))
(assert (forall ((?v0 Nat$) (?v1 Nat$) (?v2 Nat$)) (=> (fun_app$b (less_eq$ (fun_app$ (plus$ ?v0) ?v1)) (fun_app$ (plus$ ?v0) ?v2)) (fun_app$b (less_eq$ ?v1) ?v2)) ))
(assert (forall ((?v0 Nat$) (?v1 Nat$) (?v2 Nat$)) (=> (fun_app$b (less_eq$ (fun_app$ (plus$ ?v0) ?v1)) (fun_app$ (plus$ ?v2) ?v1)) (fun_app$b (less_eq$ ?v0) ?v2)) ))
(assert (forall ((?v0 Nat$) (?v1 Nat$) (?v2 Nat$) (?v3 Nat$)) (=> (and (fun_app$b (less_eq$ ?v0) ?v1) (fun_app$b (less_eq$ ?v2) ?v3)) (fun_app$b (less_eq$ (fun_app$ (plus$ ?v0) ?v2)) (fun_app$ (plus$ ?v1) ?v3))) ))
(assert (forall ((?v0 Nat$) (?v1 Nat$) (?v2 Nat$) (?v3 Nat$)) (=> (and (fun_app$b (less_eq$ ?v0) ?v1) (= ?v2 ?v3)) (fun_app$b (less_eq$ (fun_app$ (plus$ ?v0) ?v2)) (fun_app$ (plus$ ?v1) ?v3))) ))
(assert (forall ((?v0 Nat$) (?v1 Nat$) (?v2 Nat$) (?v3 Nat$)) (=> (and (= ?v0 ?v1) (fun_app$b (less_eq$ ?v2) ?v3)) (fun_app$b (less_eq$ (fun_app$ (plus$ ?v0) ?v2)) (fun_app$ (plus$ ?v1) ?v3))) ))
(assert (forall ((?v0 Nat$) (?v1 Nat$) (?v2 Nat$) (?v3 Nat$)) (=> (and (= ?v0 ?v1) (= ?v2 ?v3)) (= (fun_app$ (plus$ ?v0) ?v2) (fun_app$ (plus$ ?v1) ?v3))) ))
(assert (forall ((?v0 Nat$) (?v1 Nat$)) (=> (= ?v0 ?v1) (fun_app$b (less_eq$ ?v0) ?v1)) ))
(assert (forall ((?v0 Nat$) (?v1 Nat$)) (=> (= (suc$ ?v0) (suc$ ?v1)) (= ?v0 ?v1)) ))
(assert (forall ((?v0 Nat$) (?v1 Nat$) (?v2 Nat$)) (=> (= (fun_app$ (plus$ ?v0) ?v1) (fun_app$ (plus$ ?v0) ?v2)) (= ?v1 ?v2)) ))
(assert (forall ((?v0 Nat$) (?v1 Nat$) (?v2 Nat$)) (=> (= (fun_app$ (plus$ ?v0) ?v1) (fun_app$ (plus$ ?v2) ?v1)) (= ?v0 ?v2)) ))
(assert (forall ((?v0 Nat_bool_fun$) (?v1 Nat$)) (=> (forall ((?v2 Nat$)) (=> (forall ((?v3 Nat$)) (=> (fun_app$b (less_eq$ (suc$ ?v3)) ?v2) (fun_app$b ?v0 ?v3)) ) (fun_app$b ?v0 ?v2)) ) (fun_app$b ?v0 ?v1)) ))
(assert (forall ((?v0 Nat_num_fun$) (?v1 Nat$) (?v2 Nat$)) (=> (and (forall ((?v3 Nat$)) (less_eq$a (fun_app$c ?v0 ?v3) (fun_app$c ?v0 (suc$ ?v3))) ) (fun_app$b (less_eq$ ?v1) ?v2)) (less_eq$a (fun_app$c ?v0 ?v1) (fun_app$c ?v0 ?v2))) ))
(assert (forall ((?v0 Nat_nat_fun$) (?v1 Nat$) (?v2 Nat$)) (=> (and (forall ((?v3 Nat$)) (fun_app$b (less_eq$ (fun_app$ ?v0 ?v3)) (fun_app$ ?v0 (suc$ ?v3))) ) (fun_app$b (less_eq$ ?v1) ?v2)) (fun_app$b (less_eq$ (fun_app$ ?v0 ?v1)) (fun_app$ ?v0 ?v2))) ))
(assert (forall ((?v0 Nat_num_fun$) (?v1 Nat$) (?v2 Nat$)) (=> (and (forall ((?v3 Nat$)) (less_eq$a (fun_app$c ?v0 (suc$ ?v3)) (fun_app$c ?v0 ?v3)) ) (fun_app$b (less_eq$ ?v1) ?v2)) (less_eq$a (fun_app$c ?v0 ?v2) (fun_app$c ?v0 ?v1))) ))
(assert (forall ((?v0 Nat_nat_fun$) (?v1 Nat$) (?v2 Nat$)) (=> (and (forall ((?v3 Nat$)) (fun_app$b (less_eq$ (fun_app$ ?v0 (suc$ ?v3))) (fun_app$ ?v0 ?v3)) ) (fun_app$b (less_eq$ ?v1) ?v2)) (fun_app$b (less_eq$ (fun_app$ ?v0 ?v2)) (fun_app$ ?v0 ?v1))) ))
(assert (forall ((?v0 Nat$)) (! (= (suc$ ?v0) (fun_app$ (plus$ one$a) ?v0)) :pattern ((suc$ ?v0)))))
(assert (forall ((?v0 Nat$)) (! (= (suc$ ?v0) (fun_app$ (plus$ ?v0) one$a)) :pattern ((suc$ ?v0)))))
(assert (forall ((?v0 Nat$) (?v1 Nat$)) (! (= (fun_app$ (plus$ (suc$ ?v0)) ?v1) (suc$ (fun_app$ (plus$ ?v0) ?v1))) :pattern ((fun_app$ (plus$ (suc$ ?v0)) ?v1)))))
(assert (forall ((?v0 Nat$) (?v1 Nat$)) (= (not (fun_app$b (less_eq$ ?v0) ?v1)) (fun_app$b (less_eq$ (suc$ ?v1)) ?v0)) ))
(assert (forall ((?v0 Nat$) (?v1 Nat$)) (= (fun_app$b (less_eq$ ?v0) ?v1) (exists ((?v2 Nat$)) (= ?v1 (fun_app$ (plus$ ?v0) ?v2)) )) ))
(assert (forall ((?v0 Nat$) (?v1 Nat$)) (= (fun_app$b (less_eq$ ?v0) ?v1) (exists ((?v2 Nat$)) (= ?v1 (fun_app$ (plus$ ?v0) ?v2)) )) ))
(assert (forall ((?v0 Nat$) (?v1 Nat$)) (! (= (fun_app$b (less_eq$ ?v0) (suc$ ?v1)) (or (fun_app$b (less_eq$ ?v0) ?v1) (= ?v0 (suc$ ?v1)))) :pattern ((fun_app$b (less_eq$ ?v0) (suc$ ?v1))))))
(assert (forall ((?v0 Nat$) (?v1 Nat$)) (= (fun_app$ (plus$ ?v0) ?v1) (fun_app$ (plus$ ?v1) ?v0)) ))
(assert (forall ((?v0 Nat$) (?v1 Nat$)) (! (= (fun_app$ (plus$ (suc$ ?v0)) ?v1) (fun_app$ (plus$ ?v0) (suc$ ?v1))) :pattern ((fun_app$ (plus$ (suc$ ?v0)) ?v1)))))
(assert (forall ((?v0 Nat$) (?v1 Nat$) (?v2 Nat$)) (= (fun_app$ (plus$ ?v0) (fun_app$ (plus$ ?v1) ?v2)) (fun_app$ (plus$ ?v1) (fun_app$ (plus$ ?v0) ?v2))) ))
(assert (forall ((?v0 Nat$) (?v1 Nat$) (?v2 Nat$)) (= (fun_app$ (plus$ (fun_app$ (plus$ ?v0) ?v1)) ?v2) (fun_app$ (plus$ ?v0) (fun_app$ (plus$ ?v1) ?v2))) ))
(assert (forall ((?v0 Nat$) (?v1 Nat$) (?v2 Nat$)) (= (fun_app$ (plus$ (fun_app$ (plus$ ?v0) ?v1)) ?v2) (fun_app$ (plus$ ?v0) (fun_app$ (plus$ ?v1) ?v2))) ))
(assert (forall ((?v0 Nat$)) (= (= one$a ?v0) (= ?v0 one$a)) ))
(assert (forall ((?v0 Num$)) (= (fun_app$ (plus$ one$a) (numeral$ ?v0)) (fun_app$ (plus$ (numeral$ ?v0)) one$a)) ))
(assert (forall ((?v0 Num$)) (fun_app$b (less_eq$ one$a) (numeral$ ?v0)) ))
(assert (fun_app$b (less_eq$ one$a) one$a))
(assert (forall ((?v0 Num$) (?v1 Nat$)) (= (suc$ (fun_app$ (plus$ (numeral$ ?v0)) ?v1)) (fun_app$ (plus$ (numeral$ (plus$a ?v0 one$))) ?v1)) ))
(assert (forall ((?v0 Nat$)) (=> (prime$ ?v0) (fun_app$b (less_eq$ one$a) ?v0)) ))
(assert (forall ((?v0 Num$)) (! (= (size_num$ (bit0$ ?v0)) (fun_app$ (plus$ (size_num$ ?v0)) (suc$ zero$))) :pattern ((bit0$ ?v0)))))
(assert (forall ((?v0 Nat$) (?v1 Nat$)) (=> (and (fun_app$b (less_eq$ ?v0) one$a) (and (fun_app$b (less_eq$ zero$) ?v1) (fun_app$b (less_eq$ ?v1) one$a))) (fun_app$b (less_eq$ (fun_app$ (times$ ?v0) ?v1)) one$a)) ))
(assert (forall ((?v0 Nat$) (?v1 Nat$)) (=> (and (fun_app$b (less_eq$ ?v0) one$a) (fun_app$b (less_eq$ zero$) ?v1)) (fun_app$b (less_eq$ (fun_app$ (times$ ?v1) ?v0)) ?v1)) ))
(assert (forall ((?v0 Nat$)) (=> (prime$ ?v0) (fun_app$b (less_eq$ (suc$ zero$)) ?v0)) ))
(assert (forall ((?v0 Nat$)) (= (fun_app$ (plus$ ?v0) zero$) ?v0) ))
(assert (forall ((?v0 Nat$)) (= (fun_app$ (plus$ zero$) ?v0) ?v0) ))
(check-sat)
(exit)

